* ENCODING=ISO-8859-1
NAME          Configuration1
ROWS
 N  obj                 
 L  main_constraints(1) 
 L  main_constraints(2) 
 G  other_constraints(1)
 G  other_constraints(2)
COLUMNS
    x(1)                  obj                                        -8
    x(1)                  main_constraints(1)                        10
    x(1)                  main_constraints(2)                         6
    x(1)                  other_constraints(1)                        1
    x(2)                  obj                                       -12
    x(2)                  main_constraints(1)                        20
    x(2)                  main_constraints(2)                         8
    x(2)                  other_constraints(2)                        1
RHS
    rhs                   main_constraints(1)                       140
    rhs                   main_constraints(2)                        72
ENDATA
